
Gurobi 8.1.1 (win64, Python) logging started 11/04/19 13:35:31

Academic license - for non-commercial use only

Gurobi 8.1.1 (win64, Python) logging started 11/04/19 15:07:06

Academic license - for non-commercial use only

Gurobi 8.1.1 (win64, Python) logging started 11/04/19 15:11:51

Academic license - for non-commercial use only

Gurobi 8.1.1 (win64, Python) logging started 11/04/19 15:28:23

Academic license - for non-commercial use only

Gurobi 8.1.1 (win64, Python) logging started 11/04/19 19:18:06

Academic license - for non-commercial use only

Gurobi 8.1.1 (win64, Python) logging started 11/05/19 13:14:12

Academic license - for non-commercial use only

Gurobi 8.1.1 (win64, Python) logging started 11/05/19 14:01:17

Academic license - for non-commercial use only

Gurobi 8.1.1 (win64, Python) logging started 11/05/19 17:19:24

Academic license - for non-commercial use only

Gurobi 8.1.1 (win64, Python) logging started 11/05/19 21:55:51

Academic license - for non-commercial use only

Gurobi 8.1.1 (win64, Python) logging started 11/07/19 13:17:06

Academic license - for non-commercial use only

Gurobi 8.1.1 (win64, Python) logging started 11/07/19 16:55:30

Academic license - for non-commercial use only

Gurobi 8.1.1 (win64, Python) logging started 11/10/19 21:07:38

Academic license - for non-commercial use only

Gurobi 8.1.1 (win64, Python) logging started 11/11/19 09:41:48

Academic license - for non-commercial use only

Gurobi 8.1.1 (win64, Python) logging started 11/11/19 13:08:10

Academic license - for non-commercial use only

Gurobi 8.1.1 (win64, Python) logging started 11/12/19 09:47:37

Academic license - for non-commercial use only

Gurobi 8.1.1 (win64, Python) logging started 11/12/19 10:32:08

Academic license - for non-commercial use only

Gurobi 8.1.1 (win64, Python) logging started 11/13/19 10:23:15

Academic license - for non-commercial use only

Gurobi 8.1.1 (win64, Python) logging started 11/13/19 15:55:29

Academic license - for non-commercial use only

Gurobi 8.1.1 (win64, Python) logging started 11/13/19 20:08:58

Academic license - for non-commercial use only

Gurobi 8.1.1 (win64, Python) logging started 11/14/19 08:39:10

Academic license - for non-commercial use only

Gurobi 8.1.1 (win64, Python) logging started 11/20/19 17:39:12

Academic license - for non-commercial use only

Gurobi 8.1.1 (win64, Python) logging started 11/20/19 19:20:02

Academic license - for non-commercial use only

Gurobi 8.1.1 (win64, Python) logging started 11/20/19 20:52:04

Academic license - for non-commercial use only

Gurobi 8.1.1 (win64, Python) logging started 11/23/19 18:13:27

Academic license - for non-commercial use only

Gurobi 8.1.1 (win64, Python) logging started 11/26/19 15:12:46

Academic license - for non-commercial use only

Gurobi 8.1.1 (win64, Python) logging started 11/26/19 17:25:08

Academic license - for non-commercial use only

Gurobi 8.1.1 (win64, Python) logging started 11/26/19 21:55:27

Academic license - for non-commercial use only

Gurobi 8.1.1 (win64, Python) logging started 11/27/19 09:33:58

Academic license - for non-commercial use only

Gurobi 8.1.1 (win64, Python) logging started 12/02/19 19:55:12

Academic license - for non-commercial use only

Gurobi 8.1.1 (win64, Python) logging started 12/03/19 16:53:14

Academic license - for non-commercial use only

Gurobi 8.1.1 (win64, Python) logging started 12/03/19 17:22:30

Academic license - for non-commercial use only
